3 
4 
5  03 18 33 48 
6  03 18 33 48 
7  03 18 33 48 
8  03 18 33 48 
9  03 18 32 47 
10  02 17 32 47 
11  02 17 32 47 
12  02 17 32 46 
13  01 16 31 46 
14  01 16 31 48 
15  03 18 33 48 
16  03 18 33 48 
17  03 18 33 48 
18  03 18 33 48 
19  03 18 33 48 
20  03 18 33 48 
21  03 18 33 48 
22  05 20 35 53 
23 
